(set-logic QF_SLIA)
(declare-fun var0 () String)
(assert (not (str.in_re var0 (re.++ ((_ re.loop 2 936) (re.++ (re.union (str.to_re "o:v") (re.union (str.to_re "a") (re.union (str.to_re ">S0") (str.to_re "*n")))) (re.++ (re.union (str.to_re "ptc") (re.union (str.to_re "O") (re.union (str.to_re "XY") (str.to_re "*<q")))) (re.++ (re.union (str.to_re "U'k") (re.union (str.to_re "d") (re.union (str.to_re "g") (str.to_re "3@")))) (re.union (str.to_re "]") (re.union (str.to_re "5g") (re.union (str.to_re "j") (str.to_re "'i")))))))) (re.++ ((_ re.loop 7 385) (re.++ (re.union (str.to_re "SY%") (re.union (str.to_re "{") (re.union (str.to_re "2") (str.to_re "#")))) (re.++ (re.union (str.to_re "E") (re.union (str.to_re "FU") (re.union (str.to_re "b") (str.to_re "K")))) (re.++ (re.union (str.to_re "8-") (re.union (str.to_re "P") (re.union (str.to_re "|1.") (str.to_re "5UX")))) (re.union (str.to_re "v") (re.union (str.to_re "}i") (re.union (str.to_re "vj") (str.to_re "v</")))))))) (re.++ ((_ re.loop 12 471) (re.++ (re.union (str.to_re "e") (re.union (str.to_re "B+r") (re.union (str.to_re "D)`") (str.to_re "g~_")))) (re.++ (re.union (str.to_re "xr9") (re.union (str.to_re "ex") (re.union (str.to_re "eL") (str.to_re ")+")))) (re.++ (re.union (str.to_re "ET") (re.union (str.to_re "pC") (re.union (str.to_re "^Gc") (str.to_re "O")))) (re.union (str.to_re "UPw") (re.union (str.to_re ")") (re.union (str.to_re "\u0022D") (str.to_re "p")))))))) ((_ re.loop 9 148) (re.++ (re.union (str.to_re "v") (re.union (str.to_re "`E") (re.union (str.to_re "!") (str.to_re "&x")))) (re.++ (re.union (str.to_re "r!L") (re.union (str.to_re "k") (re.union (str.to_re "bI") (str.to_re "h")))) (re.++ (re.union (str.to_re "XN") (re.union (str.to_re "(*") (re.union (str.to_re "r") (str.to_re "5Ov")))) (re.union (str.to_re "]s") (re.union (str.to_re "a") (re.union (str.to_re "Q") (str.to_re "hi"))))))))))))))
(assert (not (str.in_re var0 (re.++ ((_ re.loop 14 989) (re.++ (re.union (str.to_re "O") (re.union (str.to_re "D,") (re.union (str.to_re "P") (str.to_re "XHc")))) (re.++ (re.union (str.to_re "#[") (re.union (str.to_re "g") (re.union (str.to_re "A~W") (str.to_re "p")))) (re.++ (re.union (str.to_re ">") (re.union (str.to_re "ah_") (re.union (str.to_re "|GJ") (str.to_re "q8")))) (re.union (str.to_re "/Z5") (re.union (str.to_re "0l") (re.union (str.to_re ">0") (str.to_re "B")))))))) (re.++ ((_ re.loop 5 676) (re.++ (re.union (str.to_re "]s#") (re.union (str.to_re "r]4") (re.union (str.to_re "8YA") (str.to_re "NX")))) (re.++ (re.union (str.to_re "Y;Z") (re.union (str.to_re "K") (re.union (str.to_re "j,") (str.to_re "mM")))) (re.++ (re.union (str.to_re "^") (re.union (str.to_re "l7=") (re.union (str.to_re "K") (str.to_re "w")))) (re.union (str.to_re "rZ") (re.union (str.to_re "c") (re.union (str.to_re "J") (str.to_re "z*h")))))))) (re.++ ((_ re.loop 11 990) (re.++ (re.union (str.to_re "O") (re.union (str.to_re ".\\t") (re.union (str.to_re "%2x") (str.to_re "r")))) (re.++ (re.union (str.to_re "b=") (re.union (str.to_re "W") (re.union (str.to_re "8g-") (str.to_re "2")))) (re.++ (re.union (str.to_re "UF") (re.union (str.to_re "6r") (re.union (str.to_re "E^") (str.to_re "u")))) (re.union (str.to_re "U+<") (re.union (str.to_re "4") (re.union (str.to_re ":!v") (str.to_re "W")))))))) ((_ re.loop 15 545) (re.++ (re.union (str.to_re "T") (re.union (str.to_re "?") (re.union (str.to_re "\\T") (str.to_re "FM")))) (re.++ (re.union (str.to_re "pHS") (re.union (str.to_re "AI") (re.union (str.to_re "pN?") (str.to_re "dk")))) (re.++ (re.union (str.to_re "u") (re.union (str.to_re "e*") (re.union (str.to_re "5H>") (str.to_re "L&;")))) (re.union (str.to_re "!") (re.union (str.to_re "&]e") (re.union (str.to_re "/Y") (str.to_re "n"))))))))))))))
(assert (not (str.in_re var0 (re.++ (re.* re.allchar) (re.++ (re.union (str.to_re "<") (re.union (str.to_re ">") (re.union (str.to_re "'") (re.union (str.to_re "\u0022") (str.to_re "&"))))) (re.* re.allchar))))))
(assert (<= 50 (str.len var0)))
(check-sat)
(get-model)
